; benchmark generated from python API
(set-info :status unknown)
(declare-fun x_days () Int)
(assert
 (>= x_days (- 36584)))
(assert
 (<= x_days 36829))
(assert
 (>= x_days 8341))
(assert
 (let ((?x543 (+ x_days 730179)))
(let ((?x305 (mod ?x543 146097)))
(let ((?x292 (div ?x305 36524)))
(let ((?x505 (ite (<= 4 ?x292) 3 ?x292)))
(let ((?x478 (- ?x305 (* ?x505 36524))))
(let ((?x581 (mod ?x478 1461)))
(let ((?x340 (div ?x581 365)))
(let ((?x2600 (ite (<= 4 ?x340) 3 ?x340)))
(let ((?x12 (+ (+ (* (div ?x543 146097) 400) (* ?x505 100)) (* (div ?x478 1461) 4))))
(let ((?x421 (+ (+ ?x12 ?x2600) 1)))
(let (($x526 (or (and (= (mod ?x421 4) 0) (and (distinct (mod ?x421 100) 0) true)) (= (mod ?x421 400) 0))))
(let ((?x737 (- ?x581 (* ?x2600 365))))
(let ((?x735 (ite $x526 31 31)))
(let (($x339 (>= ?x737 ?x735)))
(let ((?x318 (ite $x339 (+ (- ?x737 ?x735) 1) (+ (- ?x737 (ite $x526 0 0)) 1))))
(let ((?x544 (ite $x526 60 59)))
(let (($x765 (>= ?x737 ?x544)))
(let ((?x320 (ite $x526 91 90)))
(let (($x435 (>= ?x737 ?x320)))
(let ((?x405 (ite $x435 (+ (- ?x737 ?x320) 1) (ite $x765 (+ (- ?x737 ?x544) 1) ?x318))))
(let ((?x250 (ite $x526 121 120)))
(let (($x325 (>= ?x737 ?x250)))
(let ((?x2958 (ite $x526 152 151)))
(let (($x810 (>= ?x737 ?x2958)))
(let ((?x121 (ite $x810 (+ (- ?x737 ?x2958) 1) (ite $x325 (+ (- ?x737 ?x250) 1) ?x405))))
(let ((?x685 (ite $x526 182 181)))
(let (($x2596 (>= ?x737 ?x685)))
(let ((?x512 (ite $x526 213 212)))
(let (($x1255 (>= ?x737 ?x512)))
(let ((?x2372 (ite $x1255 (+ (- ?x737 ?x512) 1) (ite $x2596 (+ (- ?x737 ?x685) 1) ?x121))))
(let ((?x537 (ite $x526 244 243)))
(let (($x1253 (>= ?x737 ?x537)))
(let ((?x174 (ite $x526 274 273)))
(let (($x59 (>= ?x737 ?x174)))
(let ((?x46 (ite $x59 (+ (- ?x737 ?x174) 1) (ite $x1253 (+ (- ?x737 ?x537) 1) ?x2372))))
(let ((?x1387 (ite $x526 305 304)))
(let (($x558 (>= ?x737 ?x1387)))
(let ((?x666 (ite $x526 335 334)))
(let (($x266 (>= ?x737 ?x666)))
(let ((?x114 (ite $x266 (+ (- ?x737 ?x666) 1) (ite $x558 (+ (- ?x737 ?x1387) 1) ?x46))))
(let ((?x2721 (ite $x325 5 (ite $x435 4 (ite $x765 3 (ite $x339 2 1))))))
(let ((?x586 (ite $x1253 9 (ite $x1255 8 (ite $x2596 7 (ite $x810 6 ?x2721))))))
(let ((?x118 (+ (ite $x266 12 (ite $x558 11 (ite $x59 10 ?x586))) (+ (* 0 12) 1))))
(let ((?x1984 (- ?x118 1)))
(let ((?x1239 (+ (mod ?x1984 12) 1)))
(let ((?x728 (ite (or (= ?x1239 4) (= ?x1239 6) (= ?x1239 9) (= ?x1239 11)) 30 31)))
(let (($x508 (and (= (mod (+ ?x421 (+ 0 (div ?x1984 12))) 4) 0) (and (distinct (mod (+ ?x421 (+ 0 (div ?x1984 12))) 100) 0) true))))
(let (($x406 (or $x508 (= (mod (+ ?x421 (+ 0 (div ?x1984 12))) 400) 0))))
(let ((?x26 (ite (= ?x1239 2) (ite $x406 29 28) ?x728)))
(let ((?x680 (ite (> 1 ?x114) 1 (ite (> ?x114 ?x26) ?x26 ?x114))))
(let ((?x678 (ite (> 1 ?x680) 1 (ite (> ?x680 ?x26) ?x26 ?x680))))
(let ((?x2175 (ite (= 2 ?x1239) (ite $x406 31 31) (ite (= 1 ?x1239) (ite $x406 0 0) 0))))
(let ((?x658 (ite (= 4 ?x1239) (ite $x406 91 90) (ite (= 3 ?x1239) (ite $x406 60 59) ?x2175))))
(let ((?x571 (ite (= 6 ?x1239) (ite $x406 152 151) (ite (= 5 ?x1239) (ite $x406 121 120) ?x658))))
(let ((?x597 (ite (= 8 ?x1239) (ite $x406 213 212) (ite (= 7 ?x1239) (ite $x406 182 181) ?x571))))
(let ((?x175 (ite (= 10 ?x1239) (ite $x406 274 273) (ite (= 9 ?x1239) (ite $x406 244 243) ?x597))))
(let ((?x138 (ite (= 12 ?x1239) (ite $x406 335 334) (ite (= 11 ?x1239) (ite $x406 305 304) ?x175))))
(let ((?x552 (+ (* 365 (- (+ ?x421 (+ 0 (div ?x1984 12))) 1)) (div (- (+ ?x421 (+ 0 (div ?x1984 12))) 1) 4))))
(let ((?x134 (+ (- ?x552 (div (- (+ ?x421 (+ 0 (div ?x1984 12))) 1) 100)) (div (- (+ ?x421 (+ 0 (div ?x1984 12))) 1) 400))))
(let ((?x79 (+ (+ (- (+ (+ ?x134 ?x138) (- ?x678 1)) 730179) 0) 730179)))
(let ((?x2071 (mod ?x79 146097)))
(let ((?x647 (div ?x2071 36524)))
(let ((?x1252 (ite (<= 4 ?x647) 3 ?x647)))
(let ((?x3128 (- ?x2071 (* ?x1252 36524))))
(let ((?x1712 (mod ?x3128 1461)))
(let ((?x2147 (div ?x1712 365)))
(let ((?x302 (ite (<= 4 ?x2147) 3 ?x2147)))
(let ((?x304 (+ (+ (* (div ?x79 146097) 400) (* ?x1252 100)) (* (div ?x3128 1461) 4))))
(let ((?x93 (+ (+ ?x304 ?x302) 1)))
(let (($x274 (or (and (= (mod ?x93 4) 0) (and (distinct (mod ?x93 100) 0) true)) (= (mod ?x93 400) 0))))
(let ((?x707 (- ?x1712 (* ?x302 365))))
(let ((?x2500 (ite $x274 31 31)))
(let (($x706 (>= ?x707 ?x2500)))
(let ((?x147 (ite $x706 (+ (- ?x707 ?x2500) 1) (+ (- ?x707 (ite $x274 0 0)) 1))))
(let ((?x330 (ite $x274 60 59)))
(let (($x1701 (>= ?x707 ?x330)))
(let ((?x359 (ite $x274 91 90)))
(let (($x545 (>= ?x707 ?x359)))
(let ((?x1991 (ite $x545 (+ (- ?x707 ?x359) 1) (ite $x1701 (+ (- ?x707 ?x330) 1) ?x147))))
(let ((?x514 (ite $x274 121 120)))
(let (($x198 (>= ?x707 ?x514)))
(let ((?x1033 (ite $x274 152 151)))
(let (($x609 (>= ?x707 ?x1033)))
(let ((?x1091 (ite $x609 (+ (- ?x707 ?x1033) 1) (ite $x198 (+ (- ?x707 ?x514) 1) ?x1991))))
(let ((?x317 (ite $x274 182 181)))
(let (($x2804 (>= ?x707 ?x317)))
(let ((?x2534 (ite $x274 213 212)))
(let (($x352 (>= ?x707 ?x2534)))
(let ((?x1163 (ite $x352 (+ (- ?x707 ?x2534) 1) (ite $x2804 (+ (- ?x707 ?x317) 1) ?x1091))))
(let ((?x2599 (ite $x274 244 243)))
(let (($x194 (>= ?x707 ?x2599)))
(let ((?x2064 (ite $x274 274 273)))
(let (($x524 (>= ?x707 ?x2064)))
(let ((?x212 (ite $x524 (+ (- ?x707 ?x2064) 1) (ite $x194 (+ (- ?x707 ?x2599) 1) ?x1163))))
(let ((?x903 (ite $x274 305 304)))
(let (($x637 (>= ?x707 ?x903)))
(let ((?x591 (ite $x274 335 334)))
(let (($x123 (>= ?x707 ?x591)))
(let ((?x375 (ite $x123 (+ (- ?x707 ?x591) 1) (ite $x637 (+ (- ?x707 ?x903) 1) ?x212))))
(let (($x573 (= 0 0)))
(let (($x477 (= (mod (ite $x573 (+ ?x421 (+ 0 (div ?x1984 12))) ?x93) 400) 0)))
(let (($x482 (and (distinct (mod (ite $x573 (+ ?x421 (+ 0 (div ?x1984 12))) ?x93) 100) 0) true)))
(let (($x538 (= (mod (ite $x573 (+ ?x421 (+ 0 (div ?x1984 12))) ?x93) 4) 0)))
(let (($x2335 (or (and $x538 $x482) $x477)))
(let ((?x752 (ite $x198 5 (ite $x545 4 (ite $x1701 3 (ite $x706 2 1))))))
(let ((?x3211 (ite $x194 9 (ite $x352 8 (ite $x2804 7 (ite $x609 6 ?x752))))))
(let ((?x898 (ite $x573 ?x1239 (ite $x123 12 (ite $x637 11 (ite $x524 10 ?x3211))))))
(let ((?x1139 (ite (= 2 ?x898) (ite $x2335 31 31) (ite (= 1 ?x898) (ite $x2335 0 0) 0))))
(let ((?x2594 (ite (= 4 ?x898) (ite $x2335 91 90) (ite (= 3 ?x898) (ite $x2335 60 59) ?x1139))))
(let ((?x611 (ite (= 6 ?x898) (ite $x2335 152 151) (ite (= 5 ?x898) (ite $x2335 121 120) ?x2594))))
(let ((?x550 (ite (= 8 ?x898) (ite $x2335 213 212) (ite (= 7 ?x898) (ite $x2335 182 181) ?x611))))
(let ((?x681 (ite (= 10 ?x898) (ite $x2335 274 273) (ite (= 9 ?x898) (ite $x2335 244 243) ?x550))))
(let ((?x290 (ite (= 12 ?x898) (ite $x2335 335 334) (ite (= 11 ?x898) (ite $x2335 305 304) ?x681))))
(let ((?x184 (+ ?x421 (+ 0 (div ?x1984 12)))))
(let ((?x584 (ite $x573 ?x184 ?x93)))
(let ((?x88 (- ?x584 1)))
(let ((?x663 (+ (- (+ (* 365 ?x88) (div ?x88 4)) (div ?x88 100)) (div ?x88 400))))
(let (($x47 (<= (- (+ (+ ?x663 ?x290) (- (ite $x573 ?x678 ?x375) 1)) 730179) (+ x_days 31))))
(not $x47))))))))))))))))))))))))))))))))))))))))))))))))))))))))))))))))))))))))))))))))))))))))))))))))))))))))))))))))))))))))
(check-sat)
